decision_x1=[0,2];
decision_x2=[0,2];
decision_x3=[0,2];
decision_x4=[0,2];
decision_x5=[0,2];
decision_x6=[0,2];
decision_x7=[0,2];
decision_x8=[0,2];
decision_x9=[0,2];
decision_x10=[0,2];
random_y1=[0,2];
random_y2=[0,2];
random_y3=[0,2];
random_y4=[0,2];
random_y5=[0,2];
constraint_x4_x1=[
0,0,6.1|
0,1,1.2|
0,2,5.5|
1,0,2.1|
1,1,4.7|
1,2,7.4|
2,0,0.57|
2,1,7.7|
2,2,4.9|
];
constraint_x4_x2=[
0,0,4.9|
0,1,9.7|
0,2,3.2|
1,0,7.1|
1,1,4.8|
1,2,2.5|
2,0,4.2|
2,1,2.4|
2,2,3.4|
];
constraint_x5_x3=[
0,0,8.1|
0,1,6.3|
0,2,0.98|
1,0,9.9|
1,1,5.2|
1,2,6.9|
2,0,3.5|
2,1,5.4|
2,2,4.1|
];
constraint_x6_x1=[
0,0,5.9|
0,1,0.7|
0,2,5.2|
1,0,5.1|
1,1,1.1|
1,2,8.7|
2,0,3.5|
2,1,7.9|
2,2,1.1|
];
constraint_x6_x2=[
0,0,9.7|
0,1,6.6|
0,2,7.3|
1,0,4.5|
1,1,1.1|
1,2,8.6|
2,0,3.1|
2,1,5.4|
2,2,2.3|
];
constraint_x6_x4=[
0,0,7.2|
0,1,9.3|
0,2,0.25|
1,0,1.9|
1,1,3.4|
1,2,3.2|
2,0,9.9|
2,1,6.4|
2,2,0.72|
];
constraint_x7_x2=[
0,0,1.8|
0,1,2.7|
0,2,6.7|
1,0,4.9|
1,1,1.3|
1,2,0.21|
2,0,8|
2,1,9.9|
2,2,1.5|
];
constraint_x7_x4=[
0,0,1.8|
0,1,5.1|
0,2,5.3|
1,0,9|
1,1,0.67|
1,2,7.5|
2,0,8.8|
2,1,1.9|
2,2,4.3|
];
constraint_x7_x6=[
0,0,8.8|
0,1,7.7|
0,2,9|
1,0,1.1|
1,1,3.8|
1,2,0.56|
2,0,3.1|
2,1,8.4|
2,2,6.2|
];
constraint_x8_x1=[
0,0,1.7|
0,1,6.5|
0,2,5.8|
1,0,3.7|
1,1,5.2|
1,2,5.5|
2,0,2.8|
2,1,1.9|
2,2,4.1|
];
constraint_x8_x2=[
0,0,0.72|
0,1,5.1|
0,2,1.9|
1,0,3.4|
1,1,2.6|
1,2,5.1|
2,0,0.6|
2,1,0.19|
2,2,3.5|
];
constraint_x8_x3=[
0,0,7.4|
0,1,7.1|
0,2,9.9|
1,0,6.7|
1,1,7.2|
1,2,4.7|
2,0,4.6|
2,1,3|
2,2,0.63|
];
constraint_x8_x6=[
0,0,0.91|
0,1,4.2|
0,2,8.7|
1,0,6.1|
1,1,1.2|
1,2,8.1|
2,0,8.8|
2,1,0.71|
2,2,1.6|
];
constraint_x9_x2=[
0,0,8|
0,1,1.9|
0,2,5.1|
1,0,7.7|
1,1,6.9|
1,2,3.7|
2,0,5.5|
2,1,6.4|
2,2,4.4|
];
constraint_x9_x3=[
0,0,0.78|
0,1,7.8|
0,2,9.6|
1,0,4.5|
1,1,4.4|
1,2,0.99|
2,0,5.9|
2,1,1.1|
2,2,8.1|
];
constraint_x9_x4=[
0,0,2.3|
0,1,5.4|
0,2,9.9|
1,0,2.7|
1,1,3.7|
1,2,2.1|
2,0,2.3|
2,1,3.8|
2,2,3.3|
];
constraint_x9_x5=[
0,0,0.82|
0,1,9.1|
0,2,6.5|
1,0,1.6|
1,1,7.9|
1,2,8.2|
2,0,0.73|
2,1,6.2|
2,2,3.3|
];
constraint_x9_x6=[
0,0,5.9|
0,1,9.2|
0,2,4.3|
1,0,3.7|
1,1,2.1|
1,2,1.7|
2,0,1.9|
2,1,4.2|
2,2,6|
];
constraint_x9_x7=[
0,0,5.4|
0,1,0.063|
0,2,5.8|
1,0,2.2|
1,1,2.5|
1,2,3.8|
2,0,1.2|
2,1,3.9|
2,2,2.4|
];
constraint_x10_x1=[
0,0,3.1|
0,1,9|
0,2,9.5|
1,0,4.5|
1,1,6.3|
1,2,6.3|
2,0,3.6|
2,1,6.9|
2,2,0.44|
];
constraint_x10_x5=[
0,0,7.4|
0,1,2.6|
0,2,4.8|
1,0,5.3|
1,1,9.8|
1,2,7.9|
2,0,0.096|
2,1,6.6|
2,2,2.4|
];
constraint_x10_x6=[
0,0,5.3|
0,1,8.8|
0,2,3.1|
1,0,8.1|
1,1,9.2|
1,2,4.6|
2,0,5.9|
2,1,4.2|
2,2,4.9|
];
constraint_x10_x9=[
0,0,3.3|
0,1,8.3|
0,2,2.5|
1,0,0.52|
1,1,9.2|
1,2,4.7|
2,0,2.4|
2,1,7.2|
2,2,8.5|
];
constraint_x1_y1=[
0,0,4|
0,1,1|
0,2,3.1|
1,0,3.7|
1,1,6.9|
1,2,3.5|
2,0,8.3|
2,1,0.84|
2,2,3.4|
];
constraint_x2_y2=[
0,0,0.18|
0,1,7.8|
0,2,0.92|
1,0,9.8|
1,1,0.33|
1,2,1.6|
2,0,8.7|
2,1,1.4|
2,2,1|
];
constraint_x3_y3=[
0,0,0.35|
0,1,2|
0,2,4|
1,0,6.4|
1,1,1.4|
1,2,2.2|
2,0,7.8|
2,1,6.7|
2,2,4.5|
];
constraint_x4_y4=[
0,0,1.6|
0,1,2.7|
0,2,6.5|
1,0,2.9|
1,1,8.3|
1,2,2.3|
2,0,6.2|
2,1,5.8|
2,2,5.5|
];
constraint_x5_y5=[
0,0,8.4|
0,1,9.9|
0,2,7.2|
1,0,6.6|
1,1,9.9|
1,2,9.2|
2,0,8.2|
2,1,9.1|
2,2,1.6|
];
initial_distribution_y1=[0.46,0.32,0.22];
initial_distribution_y2=[0.43,0.3,0.27];
initial_distribution_y3=[0.44,0.46,0.1];
initial_distribution_y4=[0.46,0.29,0.25];
initial_distribution_y5=[0.13,0.41,0.47];
transition_y1=[
0.73,0.24,0.032|
0.45,0.19,0.36|
0.59,0.15,0.25|
];
transition_y2=[
0.14,0.41,0.45|
0.11,0.41,0.47|
0.43,0.4,0.18|
];
transition_y3=[
0.31,0.47,0.23|
0.15,0.15,0.69|
0.53,0.06,0.41|
];
transition_y4=[
0.093,0.31,0.6|
0.32,0.45,0.23|
0.29,0.36,0.35|
];
transition_y5=[
0.056,0.48,0.47|
0.26,0.44,0.3|
0.12,0.3,0.58|
];
